# Instance created by Brandimarte (1993)
106 91 4
0 1
1 2
2 3
3 4
4 5
6 7
7 8
8 9
9 10
11 12
12 13
13 14
14 15
15 16
16 17
17 18
19 20
20 21
21 22
22 23
23 24
24 25
26 27
27 28
28 29
29 30
30 31
32 33
33 34
34 35
35 36
36 37
37 38
38 39
39 40
41 42
42 43
43 44
44 45
46 47
47 48
48 49
49 50
50 51
51 52
52 53
54 55
55 56
56 57
57 58
58 59
59 60
60 61
61 62
63 64
64 65
65 66
66 67
67 68
68 69
69 70
70 71
72 73
73 74
74 75
75 76
76 77
77 78
79 80
80 81
81 82
82 83
83 84
85 86
86 87
87 88
88 89
89 90
90 91
92 93
93 94
94 95
95 96
96 97
97 98
99 100
100 101
101 102
102 103
103 104
104 105
2 2 5 1 7
2 0 8 3 8
2 0 6 1 5
1 2 7
2 3 5 1 6
2 3 5 0 5
1 2 7
2 0 6 1 5
1 3 6
2 3 5 1 6
2 0 8 1 6
2 3 7 2 9
2 2 5 1 7
2 3 5 0 5
2 0 8 3 8
2 0 6 1 5
1 3 6
2 0 8 1 6
2 3 9 2 6
2 3 5 0 5
2 3 7 2 9
2 0 8 3 8
1 3 8
2 0 8 1 6
2 3 5 1 6
1 3 6
2 2 7 0 5
2 3 6 1 7
2 3 7 2 9
1 2 8
2 2 5 1 7
2 0 8 1 6
1 3 6
2 3 5 1 6
1 2 8
2 2 7 0 5
2 3 6 1 7
1 3 8
2 0 8 1 6
2 0 8 3 8
2 3 5 0 5
1 2 8
2 3 7 2 9
2 0 6 1 5
2 3 6 1 7
1 2 7
2 2 7 0 5
1 2 8
2 3 7 2 9
2 3 5 0 5
1 2 7
1 3 8
2 3 9 2 6
2 0 6 1 5
2 2 5 1 7
1 3 8
2 3 5 1 6
2 0 6 1 5
1 3 6
2 0 8 3 9
2 0 8 3 8
2 0 8 1 6
1 2 7
2 0 8 1 6
2 0 8 3 8
2 0 8 3 9
2 3 9 2 6
2 0 6 1 5
1 2 8
1 2 7
1 3 6
2 3 5 1 6
2 0 8 1 6
2 0 8 3 8
2 0 6 1 5
1 2 7
1 3 6
1 2 8
2 3 9 2 6
1 3 8
1 2 7
2 3 7 2 9
2 0 6 1 5
1 2 8
2 0 8 3 8
1 3 8
2 3 9 2 6
2 0 8 3 8
2 3 6 1 7
2 0 6 1 5
2 0 8 1 6
2 2 7 0 5
2 0 6 1 5
2 2 7 0 5
2 0 8 3 8
2 0 8 1 6
2 3 5 0 5
2 3 6 1 7
1 3 6
1 2 8
2 0 8 3 9
2 3 9 2 6
1 2 7
2 3 5 1 6
2 0 8 1 6
2 0 6 1 5
